p cnf 38 107
a 26 19 0
e 1 2 3 4 5 6 7 8 9 10 11 12 13 14 15 16 17 18 20 21 22 23 24 25 27 28 29 30 31 32 33 34 35 36 37 38 0
1 2 -3 0
-1 -2 -3 0
1 -2 3 0
-1 2 3 0
-6 4 0
-6 -5 0
-4 5 6 0
6 -7 -8 0
-6 7 -8 0
6 7 8 0
-6 -7 8 0
3 -8 -9 0
-3 8 -9 0
3 8 9 0
-3 -8 9 0
11 2 0
11 -5 0
-2 5 -11 0
12 10 0
12 11 0
-10 -11 -12 0
13 -9 0
13 -12 0
9 12 -13 0
14 7 0
14 5 0
-7 -5 -14 0
15 14 0
15 -10 0
-14 10 -15 0
11 1 -16 0
-11 -1 -16 0
11 -1 16 0
-11 1 16 0
-17 16 0
-17 -16 0
18 -16 0
18 -17 0
16 17 -18 0
-15 18 -19 0
15 -18 -19 0
-15 -18 19 0
15 18 19 0
-20 -13 0
-20 19 0
13 -19 20 0
21 -10 0
21 4 0
10 -4 -21 0
-22 7 0
-22 21 0
-7 -21 22 0
-4 22 -23 0
4 -22 -23 0
-4 -22 23 0
4 22 23 0
4 -2 -25 0
-4 2 -25 0
4 2 25 0
-4 -2 25 0
-24 25 -26 0
24 -25 -26 0
-24 -25 26 0
24 25 26 0
27 23 0
27 -26 0
-23 26 -27 0
-28 25 0
-28 -25 0
29 28 0
29 -25 0
-28 25 -29 0
-30 29 0
-30 -22 0
-29 22 30 0
-32 -30 0
-32 31 0
30 -31 32 0
33 -27 0
33 32 0
27 -32 -33 0
34 -4 0
34 16 0
4 -16 -34 0
-35 -33 0
-35 -34 0
33 34 35 0
-36 22 0
-36 -2 0
-22 2 36 0
37 -35 0
37 36 0
35 -36 -37 0
-38 -20 0
-38 37 0
20 -37 38 0
-14 17 10 -16 -15 8 30 0
-14 -26 33 35 0
-9 32 23 7 21 -22 0
7 -35 18 -10 -30 -36 0
-36 9 -16 12 0
-23 5 11 6 26 -12 0
31 5 -4 -19 2 -7 0
-14 11 8 0
30 -35 -3 24 28 -19 0
-4 -33 14 -7 -36 27 0
38 0
